NAME : rnd26_20.tsp
TYPE : TSP
DIMENSION : 20
EDGE_WEIGHT_TYPE : EUC_2D
NODE_COORD_SECTION
1 680 19
2 845 510
3 494 61
4 789 516
5 775 814
6 199 883
7 286 143
8 68 473
9 785 515
10 115 594
11 99 795
12 53 770
13 511 64
14 234 99
15 498 153
16 836 208
17 912 512
18 169 839
19 574 984
20 50 564
